2494.67
0 21 12 22 13 11 16 17 38 2 53 7 8 1 9 5 3 6 4 10 0
0 14 25 15 18 20 24 27 26 19 46 31 72 0
0 28 39 32 36 34 51 23 0
0 29 40 54 0
0 37 43 45 33 41 30 35 0
0 48 42 49 55 57 44 61 65 50 58 56 0
0 70 68 52 60 47 59 0
0 69 66 67 73 74 62 64 63 75 0
0 71 0
